sat
(:max-memory                   18.30
 :memory                       18.03
 :nlsat-conflicts              5
 :nlsat-decisions              3
 :nlsat-irrational-assignments 1
 :nlsat-learned-added          5
 :nlsat-propagations           29
 :nlsat-stages                 8
 :num-allocs                   28699
 :rlimit-count                 36271
 :time                         0.04
 :total-time                   0.04)
